p cnf 1240
-21 -385
-22 -388
-23 -391
-24 -394
-25 -397
-26 -400
-27 -403
-28 -406
-29 -409
-30 -412
-31 -415
-32 -418
-33 -421
-34 -424
-35 -427
-36 -430
-37 -433
-38 -436
-39 -439
-40 -442
-41 443
-42 444
-43 445
-44 446
-45 447
-46 448
-47 449
-48 -22
-48 -23
22 23 48
-49 -24
-49 -25
24 25 49
-50 -26
-50 -27
26 27 50
-51 -28
-51 -29
28 29 51
-52 -30
-52 -31
30 31 52
-53 -32
-53 -33
32 33 53
-54 -34
-54 -35
34 35 54
-55 -36
-55 -37
36 37 55
-56 -38
-56 -39
38 39 56
-57 -40
-57 -41
40 41 57
-58 -42
-58 -43
42 43 58
-59 -44
-59 -45
44 45 59
-60 -46
-60 -47
46 47 60
-61 48
-61 49
-48 -49 61
-62 50
-62 51
-50 -51 62
-63 52
-63 53
-52 -53 63
-64 54
-64 55
-54 -55 64
-65 56
-65 57
-56 -57 65
-66 58
-66 59
-58 -59 66
-67 61
-67 62
-61 -62 67
-68 63
-68 64
-63 -64 68
-69 65
-69 66
-65 -66 69
-70 67
-70 68
-67 -68 70
-71 60
-71 69
-60 -69 71
-72 70
-72 71
-70 -71 72
-73 -21
-73 22
21 -22 73
-74 21
-74 -22
-21 22 74
-75 -73
-75 -74
73 74 75
-76 21
-76 22
-21 -22 76
-77 -21
-77 -75
21 75 77
-78 21
-78 75
-21 -75 78
-79 -77
-79 -78
77 78 79
-80 21
-80 -75
-21 75 80
-81 -76
-81 -80
76 80 81
-82 -22
-82 23
22 -23 82
-83 22
-83 -23
-22 23 83
-84 -82
-84 -83
82 83 84
-85 22
-85 23
-22 -23 85
-86 81
-86 -84
-81 84 86
-87 -81
-87 84
81 -84 87
-88 -86
-88 -87
86 87 88
-89 -81
-89 -84
81 84 89
-90 -85
-90 -89
85 89 90
-91 -23
-91 24
23 -24 91
-92 23
-92 -24
-23 24 92
-93 -91
-93 -92
91 92 93
-94 23
-94 24
-23 -24 94
-95 90
-95 -93
-90 93 95
-96 -90
-96 93
90 -93 96
-97 -95
-97 -96
95 96 97
-98 -90
-98 -93
90 93 98
-99 -94
-99 -98
94 98 99
-100 -24
-100 25
24 -25 100
-101 24
-101 -25
-24 25 101
-102 -100
-102 -101
100 101 102
-103 24
-103 25
-24 -25 103
-104 99
-104 -102
-99 102 104
-105 -99
-105 102
99 -102 105
-106 -104
-106 -105
104 105 106
-107 -99
-107 -102
99 102 107
-108 -103
-108 -107
103 107 108
-109 -25
-109 26
25 -26 109
-110 25
-110 -26
-25 26 110
-111 -109
-111 -110
109 110 111
-112 25
-112 26
-25 -26 112
-113 108
-113 -111
-108 111 113
-114 -108
-114 111
108 -111 114
-115 -113
-115 -114
113 114 115
-116 -108
-116 -111
108 111 116
-117 -112
-117 -116
112 116 117
-118 -26
-118 27
26 -27 118
-119 26
-119 -27
-26 27 119
-120 -118
-120 -119
118 119 120
-121 26
-121 27
-26 -27 121
-122 117
-122 -120
-117 120 122
-123 -117
-123 120
117 -120 123
-124 -122
-124 -123
122 123 124
-125 -117
-125 -120
117 120 125
-126 -121
-126 -125
121 125 126
-127 -27
-127 28
27 -28 127
-128 27
-128 -28
-27 28 128
-129 -127
-129 -128
127 128 129
-130 27
-130 28
-27 -28 130
-131 126
-131 -129
-126 129 131
-132 -126
-132 129
126 -129 132
-133 -131
-133 -132
131 132 133
-134 -126
-134 -129
126 129 134
-135 -130
-135 -134
130 134 135
-136 -28
-136 29
28 -29 136
-137 28
-137 -29
-28 29 137
-138 -136
-138 -137
136 137 138
-139 28
-139 29
-28 -29 139
-140 135
-140 -138
-135 138 140
-141 -135
-141 138
135 -138 141
-142 -140
-142 -141
140 141 142
-143 -135
-143 -138
135 138 143
-144 -139
-144 -143
139 143 144
-145 -29
-145 30
29 -30 145
-146 29
-146 -30
-29 30 146
-147 -145
-147 -146
145 146 147
-148 29
-148 30
-29 -30 148
-149 144
-149 -147
-144 147 149
-150 -144
-150 147
144 -147 150
-151 -149
-151 -150
149 150 151
-152 -144
-152 -147
144 147 152
-153 -148
-153 -152
148 152 153
-154 -30
-154 31
30 -31 154
-155 30
-155 -31
-30 31 155
-156 -154
-156 -155
154 155 156
-157 30
-157 31
-30 -31 157
-158 153
-158 -156
-153 156 158
-159 -153
-159 156
153 -156 159
-160 -158
-160 -159
158 159 160
-161 -153
-161 -156
153 156 161
-162 -157
-162 -161
157 161 162
-163 -31
-163 32
31 -32 163
-164 31
-164 -32
-31 32 164
-165 -163
-165 -164
163 164 165
-166 31
-166 32
-31 -32 166
-167 162
-167 -165
-162 165 167
-168 -162
-168 165
162 -165 168
-169 -167
-169 -168
167 168 169
-170 -162
-170 -165
162 165 170
-171 -166
-171 -170
166 170 171
-172 -32
-172 33
32 -33 172
-173 32
-173 -33
-32 33 173
-174 -172
-174 -173
172 173 174
-175 32
-175 33
-32 -33 175
-176 171
-176 -174
-171 174 176
-177 -171
-177 174
171 -174 177
-178 -176
-178 -177
176 177 178
-179 -171
-179 -174
171 174 179
-180 -175
-180 -179
175 179 180
-181 -33
-181 34
33 -34 181
-182 33
-182 -34
-33 34 182
-183 -181
-183 -182
181 182 183
-184 33
-184 34
-33 -34 184
-185 180
-185 -183
-180 183 185
-186 -180
-186 183
180 -183 186
-187 -185
-187 -186
185 186 187
-188 -180
-188 -183
180 183 188
-189 -184
-189 -188
184 188 189
-190 -34
-190 35
34 -35 190
-191 34
-191 -35
-34 35 191
-192 -190
-192 -191
190 191 192
-193 34
-193 35
-34 -35 193
-194 189
-194 -192
-189 192 194
-195 -189
-195 192
189 -192 195
-196 -194
-196 -195
194 195 196
-197 -189
-197 -192
189 192 197
-198 -193
-198 -197
193 197 198
-199 -35
-199 36
35 -36 199
-200 35
-200 -36
-35 36 200
-201 -199
-201 -200
199 200 201
-202 35
-202 36
-35 -36 202
-203 198
-203 -201
-198 201 203
-204 -198
-204 201
198 -201 204
-205 -203
-205 -204
203 204 205
-206 -198
-206 -201
198 201 206
-207 -202
-207 -206
202 206 207
-208 -36
-208 37
36 -37 208
-209 36
-209 -37
-36 37 209
-210 -208
-210 -209
208 209 210
-211 36
-211 37
-36 -37 211
-212 207
-212 -210
-207 210 212
-213 -207
-213 210
207 -210 213
-214 -212
-214 -213
212 213 214
-215 -207
-215 -210
207 210 215
-216 -211
-216 -215
211 215 216
-217 -37
-217 38
37 -38 217
-218 37
-218 -38
-37 38 218
-219 -217
-219 -218
217 218 219
-220 37
-220 38
-37 -38 220
-221 216
-221 -219
-216 219 221
-222 -216
-222 219
216 -219 222
-223 -221
-223 -222
221 222 223
-224 -216
-224 -219
216 219 224
-225 -220
-225 -224
220 224 225
-226 -38
-226 39
38 -39 226
-227 38
-227 -39
-38 39 227
-228 -226
-228 -227
226 227 228
-229 38
-229 39
-38 -39 229
-230 225
-230 -228
-225 228 230
-231 -225
-231 228
225 -228 231
-232 -230
-232 -231
230 231 232
-233 -225
-233 -228
225 228 233
-234 -229
-234 -233
229 233 234
-235 -39
-235 40
39 -40 235
-236 39
-236 -40
-39 40 236
-237 -235
-237 -236
235 236 237
-238 39
-238 40
-39 -40 238
-239 234
-239 -237
-234 237 239
-240 -234
-240 237
234 -237 240
-241 -239
-241 -240
239 240 241
-242 -234
-242 -237
234 237 242
-243 -238
-243 -242
238 242 243
-244 -40
-244 41
40 -41 244
-245 40
-245 -41
-40 41 245
-246 -244
-246 -245
244 245 246
-247 40
-247 41
-40 -41 247
-248 243
-248 -246
-243 246 248
-249 -243
-249 246
243 -246 249
-250 -248
-250 -249
248 249 250
-251 -243
-251 -246
243 246 251
-252 -247
-252 -251
247 251 252
-253 -41
-253 42
41 -42 253
-254 41
-254 -42
-41 42 254
-255 -253
-255 -254
253 254 255
-256 41
-256 42
-41 -42 256
-257 252
-257 -255
-252 255 257
-258 -252
-258 255
252 -255 258
-259 -257
-259 -258
257 258 259
-260 -252
-260 -255
252 255 260
-261 -256
-261 -260
256 260 261
-262 -42
-262 43
42 -43 262
-263 42
-263 -43
-42 43 263
-264 -262
-264 -263
262 263 264
-265 42
-265 43
-42 -43 265
-266 261
-266 -264
-261 264 266
-267 -261
-267 264
261 -264 267
-268 -266
-268 -267
266 267 268
-269 -261
-269 -264
261 264 269
-270 -265
-270 -269
265 269 270
-271 -43
-271 44
43 -44 271
-272 43
-272 -44
-43 44 272
-273 -271
-273 -272
271 272 273
-274 43
-274 44
-43 -44 274
-275 270
-275 -273
-270 273 275
-276 -270
-276 273
270 -273 276
-277 -275
-277 -276
275 276 277
-278 -270
-278 -273
270 273 278
-279 -274
-279 -278
274 278 279
-280 -44
-280 45
44 -45 280
-281 44
-281 -45
-44 45 281
-282 -280
-282 -281
280 281 282
-283 44
-283 45
-44 -45 283
-284 279
-284 -282
-279 282 284
-285 -279
-285 282
279 -282 285
-286 -284
-286 -285
284 285 286
-287 -279
-287 -282
279 282 287
-288 -283
-288 -287
283 287 288
-289 -45
-289 46
45 -46 289
-290 45
-290 -46
-45 46 290
-291 -289
-291 -290
289 290 291
-292 45
-292 46
-45 -46 292
-293 288
-293 -291
-288 291 293
-294 -288
-294 291
288 -291 294
-295 -293
-295 -294
293 294 295
-296 -288
-296 -291
288 291 296
-297 -292
-297 -296
292 296 297
-298 -46
-298 47
46 -47 298
-299 46
-299 -47
-46 47 299
-300 -298
-300 -299
298 299 300
-301 46
-301 47
-46 -47 301
-302 297
-302 -300
-297 300 302
-303 -297
-303 300
297 -300 303
-304 -302
-304 -303
302 303 304
-305 -297
-305 -300
297 300 305
-306 -301
-306 -305
301 305 306
-307 21
-307 -79
-21 79 307
-308 -21
-308 23
21 -23 308
-309 -307
-309 -308
307 308 309
-310 21
-310 -88
-21 88 310
-311 -21
-311 24
21 -24 311
-312 -310
-312 -311
310 311 312
-313 21
-313 -97
-21 97 313
-314 -21
-314 25
21 -25 314
-315 -313
-315 -314
313 314 315
-316 21
-316 -106
-21 106 316
-317 -21
-317 26
21 -26 317
-318 -316
-318 -317
316 317 318
-319 21
-319 -115
-21 115 319
-320 -21
-320 27
21 -27 320
-321 -319
-321 -320
319 320 321
-322 21
-322 -124
-21 124 322
-323 -21
-323 28
21 -28 323
-324 -322
-324 -323
322 323 324
-325 21
-325 -133
-21 133 325
-326 -21
-326 29
21 -29 326
-327 -325
-327 -326
325 326 327
-328 21
-328 -142
-21 142 328
-329 -21
-329 30
21 -30 329
-330 -328
-330 -329
328 329 330
-331 21
-331 -151
-21 151 331
-332 -21
-332 31
21 -31 332
-333 -331
-333 -332
331 332 333
-334 21
-334 -160
-21 160 334
-335 -21
-335 32
21 -32 335
-336 -334
-336 -335
334 335 336
-337 21
-337 -169
-21 169 337
-338 -21
-338 33
21 -33 338
-339 -337
-339 -338
337 338 339
-340 21
-340 -178
-21 178 340
-341 -21
-341 34
21 -34 341
-342 -340
-342 -341
340 341 342
-343 21
-343 -187
-21 187 343
-344 -21
-344 35
21 -35 344
-345 -343
-345 -344
343 344 345
-346 21
-346 -196
-21 196 346
-347 -21
-347 36
21 -36 347
-348 -346
-348 -347
346 347 348
-349 21
-349 -205
-21 205 349
-350 -21
-350 37
21 -37 350
-351 -349
-351 -350
349 350 351
-352 21
-352 -214
-21 214 352
-353 -21
-353 38
21 -38 353
-354 -352
-354 -353
352 353 354
-355 21
-355 -223
-21 223 355
-356 -21
-356 39
21 -39 356
-357 -355
-357 -356
355 356 357
-358 21
-358 -232
-21 232 358
-359 -21
-359 40
21 -40 359
-360 -358
-360 -359
358 359 360
-361 21
-361 -241
-21 241 361
-362 -21
-362 41
21 -41 362
-363 -361
-363 -362
361 362 363
-364 21
-364 -250
-21 250 364
-365 -21
-365 42
21 -42 365
-366 -364
-366 -365
364 365 366
-367 21
-367 -259
-21 259 367
-368 -21
-368 43
21 -43 368
-369 -367
-369 -368
367 368 369
-370 21
-370 -268
-21 268 370
-371 -21
-371 44
21 -44 371
-372 -370
-372 -371
370 371 372
-373 21
-373 -277
-21 277 373
-374 -21
-374 45
21 -45 374
-375 -373
-375 -374
373 374 375
-376 21
-376 -286
-21 286 376
-377 -21
-377 46
21 -46 377
-378 -376
-378 -377
376 377 378
-379 21
-379 -295
-21 295 379
-380 -21
-380 47
21 -47 380
-381 -379
-381 -380
379 380 381
-382 21
-382 -304
-21 304 382
-383 1
-383 72
-1 -72 383
-384 -72
-384 73
72 -73 384
-385 -383
-385 -384
383 384 385
-386 2
-386 72
-2 -72 386
-387 -72
-387 -309
72 309 387
-388 -386
-388 -387
386 387 388
-389 3
-389 72
-3 -72 389
-390 -72
-390 -312
72 312 390
-391 -389
-391 -390
389 390 391
-392 4
-392 72
-4 -72 392
-393 -72
-393 -315
72 315 393
-394 -392
-394 -393
392 393 394
-395 5
-395 72
-5 -72 395
-396 -72
-396 -318
72 318 396
-397 -395
-397 -396
395 396 397
-398 6
-398 72
-6 -72 398
-399 -72
-399 -321
72 321 399
-400 -398
-400 -399
398 399 400
-401 7
-401 72
-7 -72 401
-402 -72
-402 -324
72 324 402
-403 -401
-403 -402
401 402 403
-404 8
-404 72
-8 -72 404
-405 -72
-405 -327
72 327 405
-406 -404
-406 -405
404 405 406
-407 9
-407 72
-9 -72 407
-408 -72
-408 -330
72 330 408
-409 -407
-409 -408
407 408 409
-410 10
-410 72
-10 -72 410
-411 -72
-411 -333
72 333 411
-412 -410
-412 -411
410 411 412
-413 11
-413 72
-11 -72 413
-414 -72
-414 -336
72 336 414
-415 -413
-415 -414
413 414 415
-416 12
-416 72
-12 -72 416
-417 -72
-417 -339
72 339 417
-418 -416
-418 -417
416 417 418
-419 13
-419 72
-13 -72 419
-420 -72
-420 -342
72 342 420
-421 -419
-421 -420
419 420 421
-422 14
-422 72
-14 -72 422
-423 -72
-423 -345
72 345 423
-424 -422
-424 -423
422 423 424
-425 15
-425 72
-15 -72 425
-426 -72
-426 -348
72 348 426
-427 -425
-427 -426
425 426 427
-428 16
-428 72
-16 -72 428
-429 -72
-429 -351
72 351 429
-430 -428
-430 -429
428 429 430
-431 17
-431 72
-17 -72 431
-432 -72
-432 -354
72 354 432
-433 -431
-433 -432
431 432 433
-434 18
-434 72
-18 -72 434
-435 -72
-435 -357
72 357 435
-436 -434
-436 -435
434 435 436
-437 19
-437 72
-19 -72 437
-438 -72
-438 -360
72 360 438
-439 -437
-439 -438
437 438 439
-440 20
-440 72
-20 -72 440
-441 -72
-441 -363
72 363 441
-442 -440
-442 -441
440 441 442
-443 -72
-443 -366
72 366 443
-444 -72
-444 -369
72 369 444
-445 -72
-445 -372
72 372 445
-446 -72
-446 -375
72 375 446
-447 -72
-447 -378
72 378 447
-448 -72
-448 -381
72 381 448
-449 -72
-449 382
72 -382 449
-450 -47
-450 306
47 -306 450
-451 21
-451 -450
-21 450 451
451
